NAME : random_2
COMMENT : 60 random nodes
TYPE : TSP
DIMENSION : 60
EDGE_WEIGHT_TYPE : EUC_2D
NODE_COORD_SECTION
1 716 159
2 843 651
3 417 872
4 789 342
5 760 861
6 23 176
7 552 192
8 569 740
9 559 832
10 352 237
11 552 383
12 197 824
13 387 818
14 280 965
15 925 135
16 293 111
17 161 83
18 227 573
19 663 224
20 383 315
21 136 876
22 5 33
23 202 121
24 850 817
25 202 192
26 15 664
27 291 134
28 730 791
29 676 561
30 225 663
31 847 301
32 174 786
33 68 185
34 877 144
35 77 496
36 518 991
37 92 106
38 16 72
39 294 54
40 299 46
41 250 987
42 766 566
43 493 972
44 672 413
45 393 100
46 350 555
47 907 140
48 399 774
49 358 839
50 365 868
51 641 634
52 515 835
53 865 908
54 218 45
55 338 39
56 216 594
57 28 418
58 499 577
59 242 785
60 591 736
EOF